
Gurobi 11.0.1 (win64) logging started Thu May 16 18:19:48 2024

Set parameter LogFile to value "output/solver_log4.txt"
Gurobi Optimizer version 11.0.1 build v11.0.1rc0 (win64 - Windows 11.0 (22631.2))

CPU model: 11th Gen Intel(R) Core(TM) i7-1165G7 @ 2.80GHz, instruction set [SSE2|AVX|AVX2|AVX512]
Thread count: 4 physical cores, 8 logical processors, using up to 8 threads

Optimize a model with 5896 rows, 1508 columns and 112528 nonzeros
Model fingerprint: 0x4ab76ce3
Variable types: 568 continuous, 940 integer (940 binary)
Coefficient statistics:
  Matrix range     [4e-01, 1e+05]
  Objective range  [1e+00, 1e+02]
  Bounds range     [1e+00, 1e+00]
  RHS range        [1e-02, 1e+05]

User MIP start produced solution with objective 40063.7 (0.01s)
User MIP start produced solution with objective 40063.7 (0.01s)
Loaded user MIP start with objective 40063.7

Presolve removed 1242 rows and 626 columns
Presolve time: 0.11s
Presolved: 4654 rows, 882 columns, 89466 nonzeros
Variable types: 529 continuous, 353 integer (348 binary)

Root relaxation: objective 5.193625e+04, 2083 iterations, 0.15 seconds (0.27 work units)

    Nodes    |    Current Node    |     Objective Bounds      |     Work
 Expl Unexpl |  Obj  Depth IntInf | Incumbent    BestBd   Gap | It/Node Time

     0     0 51936.2507    0   58 40063.6804 51936.2507  29.6%     -    0s
     0     0 50120.2985    0   87 40063.6804 50120.2985  25.1%     -    0s
     0     0 50097.2285    0   79 40063.6804 50097.2285  25.0%     -    0s
     0     0 50097.2285    0   86 40063.6804 50097.2285  25.0%     -    0s
     0     0 49512.4984    0   81 40063.6804 49512.4984  23.6%     -    1s
     0     0 49392.9348    0   84 40063.6804 49392.9348  23.3%     -    1s
     0     0 49392.9348    0   90 40063.6804 49392.9348  23.3%     -    1s
     0     0 49392.9348    0   90 40063.6804 49392.9348  23.3%     -    1s
     0     0 48242.3876    0   74 40063.6804 48242.3876  20.4%     -    1s
     0     0 47613.5915    0   86 40063.6804 47613.5915  18.8%     -    1s
     0     0 47613.5915    0   82 40063.6804 47613.5915  18.8%     -    1s
     0     0 47613.5915    0   82 40063.6804 47613.5915  18.8%     -    1s
     0     0 47101.3826    0   94 40063.6804 47101.3826  17.6%     -    1s
     0     0 46946.3332    0   84 40063.6804 46946.3332  17.2%     -    2s
     0     0 46932.2846    0   89 40063.6804 46932.2846  17.1%     -    2s
     0     0 46928.0121    0   88 40063.6804 46928.0121  17.1%     -    2s
     0     0 46927.7859    0   89 40063.6804 46927.7859  17.1%     -    2s
     0     0 46925.5661    0   91 40063.6804 46925.5661  17.1%     -    2s
     0     0 46816.4214    0   88 40063.6804 46816.4214  16.9%     -    2s
     0     0 46816.4214    0   88 40063.6804 46816.4214  16.9%     -    2s
     0     0 46816.4214    0   85 40063.6804 46816.4214  16.9%     -    2s
     0     0 46816.4214    0   85 40063.6804 46816.4214  16.9%     -    2s
     0     0 46816.4214    0   90 40063.6804 46816.4214  16.9%     -    2s
     0     0 46816.4214    0   83 40063.6804 46816.4214  16.9%     -    3s
     0     0 46816.4214    0   84 40063.6804 46816.4214  16.9%     -    3s
     0     0 46816.4214    0   80 40063.6804 46816.4214  16.9%     -    3s
     0     0 46816.4214    0   81 40063.6804 46816.4214  16.9%     -    3s
     0     0 46816.4214    0   78 40063.6804 46816.4214  16.9%     -    3s
     0     0 46816.4214    0   80 40063.6804 46816.4214  16.9%     -    3s
     0     0 46813.2387    0   87 40063.6804 46813.2387  16.8%     -    3s
     0     0 46813.2387    0   85 40063.6804 46813.2387  16.8%     -    3s
     0     0 46690.3884    0   83 40063.6804 46690.3884  16.5%     -    4s
     0     2 46690.3884    0   83 40063.6804 46690.3884  16.5%     -    4s
    11    15 43950.8843    4   87 40063.6804 44560.4638  11.2%   611    5s
H   59    51                    40063.961090 44560.4638  11.2%   532    6s
H  119    77                    40063.969707 43815.3048  9.36%   585    8s
H  151    85                    40064.163784 43815.3048  9.36%   589    9s
   187    92 40961.2749    7   45 40064.1638 43815.3048  9.36%   588   10s
H  266   139                    40077.633243 43815.3048  9.33%   573   11s
   677   349 40099.1171   31   44 40077.6332 43389.4209  8.26%   386   15s
H  749   357                    40087.883051 43389.4209  8.24%   360   16s
H  750   341                    40095.182128 43389.4209  8.22%   360   16s
   999   371     cutoff    9      40095.1821 41629.9891  3.83%   367   20s
  1493   381 40385.9726    8   64 40095.1821 41007.7863  2.28%   370   25s
  1805   411     cutoff   12      40095.1821 40787.0060  1.73%   361   31s
  2142   488 40380.4636    9   59 40095.1821 40392.9960  0.74%   352   35s
H 2428   477                    40098.834238 40220.8576  0.30%   330   39s
  2430   619 40104.0317   48   30 40098.8342 40197.2900  0.25%   330   40s
H 2565   604                    40099.302923 40151.2646  0.13%   315   40s
  3868  1230 40102.2939   92   83 40099.3029 40107.1834  0.02%   235   47s
  3882  1239 40107.0404   46   95 40099.3029 40107.1834  0.02%   234   50s
  3996  1230 40107.1834   19   52 40099.3029 40107.1834  0.02%   246   55s
H 4160  1125                    40099.363377 40107.1834  0.02%   254   59s
  4175  1133 40107.1834   41   42 40099.3634 40107.1834  0.02%   254   60s

Cutting planes:
  Gomory: 4
  Implied bound: 10
  Projected implied bound: 3
  MIR: 33
  Flow cover: 53
  RLT: 3
  Relax-and-lift: 3
  BQP: 1

Explored 4200 nodes (1078037 simplex iterations) in 60.02 seconds (131.90 work units)
Thread count was 8 (of 8 available processors)

Solution count 10: 40099.4 40099.3 40098.8 ... 40063.7

Time limit reached
Best objective 4.009936337665e+04, best bound 4.010718340356e+04, gap 0.0195%
